0 2
1 3
2 4
3 5
4 6
5 7
6 8
7 9
8 10
9 11
10 12
11 13
12 14
13 15
14 16
15 17
16 18
17 19
18 20
19 21
20 22
21 23
22 24
23 25
24 26
25 27
26 28
27 29
28 30
29 31
30 32
31 3
32 10
33 3
34 30
35 3
36 26
37 16
38 3
39 5
40 3
41 16
42 19
43 16
44 17
45 31
46 3
47 3
48 16
49 30
50 31
51 31
52 17
53 3
54 31
55 12
56 19
57 31
58 8
59 12
60 16
61 3
62 5
63 16
64 3
65 3
66 26
67 5
68 3
69 5
70 3
71 30
72 16
73 3
74 11
75 3
76 3
77 26
78 3
79 3
80 16
81 3
82 3
83 3
84 30
85 31
86 31
87 31
88 31
89 30
90 3
91 3
92 30
93 3
94 16
95 3
96 3
97 26
98 30
99 3
100 3
101 3
102 3
103 3
104 30
105 3
106 3
107 31
108 8
109 26
110 3
111 19
112 16
113 16
114 3
115 3
116 8
117 3
118 19
119 3
120 12
121 19
122 31
123 16
124 30
125 21
126 16
127 3
128 30
129 3
130 3
131 3
132 3
133 8
134 3
135 16
136 30
137 26
138 16
139 30
140 3
141 3
142 19
143 19
144 3
145 3
146 3
147 31
148 3
149 16
150 19
151 11
152 16
153 16
154 26
155 3
156 31
157 19
158 16
159 26
160 17
161 16
162 16
163 3
164 3
165 5
166 3
167 31
168 3
169 16
170 16
171 16
172 3
173 26
174 31
175 19
176 8
177 19
178 26
179 3
180 30
181 3
182 16
183 3
184 31
185 19
186 16
187 3
188 3
189 19
190 17
191 3
192 19
193 16
194 19
195 3
196 16
197 31
198 19
199 16
200 16
201 3
202 31
203 19
204 12
205 30
206 3
207 3
208 3
209 3
210 3
211 3
212 30
213 31
214 3
215 31
216 3
217 16
218 16
219 16
220 16
221 3
222 3
223 3
224 19
225 26
226 31
227 16
228 16
229 16
230 3
231 31
232 31
233 30
234 26
235 19
236 3
237 3
238 16
239 16
240 3
241 16
242 16
243 3
244 16
245 16
246 17
247 16
248 3
249 3
250 3
251 8
252 19
253 16
254 3
255 17
256 3
257 3
258 3
259 3
260 5
261 17
262 3
263 3
264 16
265 3
266 26
267 31
268 19
269 3
270 13
271 3
272 26
273 16
274 3
275 19
276 19
277 3
278 19
279 3
280 16
281 16
282 3
283 16
284 17
285 16
286 3
287 3
288 19
289 13
290 19
291 19
292 31
293 3
294 3
295 29
296 10
297 19
298 13
299 30
300 31
301 31
302 17
303 16
304 30
305 31
306 31
307 19
308 18
309 8
310 3
311 16
312 3
313 17
314 11
315 31
316 16
317 30
318 3
319 3
320 31
321 5
322 31
323 1
324 31
325 3
326 3
327 3
328 26
329 17
330 26
331 30
332 31
333 13
334 31
335 3
336 30
337 16
338 26
339 31
340 3
341 17
342 31
343 3
344 3
345 26
346 30
347 19
348 16
349 19
350 19
351 3
352 31
353 19
354 30
355 31
356 3
357 3
358 17
359 19
360 13
361 16
362 3
363 26
364 3
365 8
366 16
367 16
368 31
369 3
370 19
371 16
372 3
373 3
374 16
375 31
376 3
377 3
378 3
379 3
380 3
381 19
382 30
383 19
384 3
385 5
386 31
387 31
388 3
389 26
390 16
391 31
392 19
393 13
394 3
395 26
396 6
397 3
398 3
399 3
400 30
401 16
402 16
403 3
404 3
405 3
406 3
407 3
408 3
409 16
410 19
411 19
412 30
413 30
414 8
415 31
416 3
417 3
418 19
419 30
420 30
421 30
422 31
423 31
424 3
425 31
426 30
427 13
428 30
429 3
430 30
431 31
432 8
433 26
434 3
435 3
436 31
437 3
438 19
439 3
440 17
441 19
442 16
443 3
444 17
445 19
446 3
447 30
448 3
449 3
450 26
451 30
452 19
453 3
454 3
455 17
456 5
457 3
458 19
459 5
460 3
461 19
462 30
463 3
464 19
465 19
466 3
467 3
468 19
469 16
470 3
471 26
472 3
473 3
474 31
475 16
476 17
477 3
478 31
479 3
480 3
481 3
482 3
483 3
484 16
485 16
486 5
487 3
488 31
489 21
490 30
491 31
492 3
493 3
494 31
495 26
496 31
497 3
498 30
499 30
500 26
501 16
502 16
503 3
504 19
505 3
506 11
507 8
508 3
509 3
510 3
511 26
512 19
513 31
514 3
515 3
516 3
517 3
518 26
519 31
520 17
521 3
522 3
523 3
524 16
525 31
526 31
527 31
528 16
529 17
530 3
531 16
532 3
533 3
534 27
535 31
536 31
537 3
538 5
539 16
540 16
541 3
542 16
543 31
544 30
545 31
546 16
547 3
548 19
549 3
550 30
551 3
552 26
553 19
554 3
555 3
556 31
557 16
558 3
559 3
560 16
561 3
562 3
563 30
564 31
565 31
566 30
567 8
568 19
569 19
570 19
571 31
572 3
573 31
574 16
575 19
576 3
577 3
578 3
579 17
580 8
581 19
582 16
583 19
584 30
585 3
586 3
587 16
588 3
589 19
590 3
591 3
592 19
593 31
594 16
595 3
596 11
597 3
598 3
599 16
600 30
601 31
602 30
603 3
604 19
605 3
606 31
607 3
608 31
609 3
610 19
611 16
612 3
613 26
614 31
615 3
616 19
617 3
618 31
619 5
620 31
621 31
622 16
623 17
624 16
625 26
626 31
627 3
628 13
629 3
630 17
631 3
632 3
633 30
634 3
635 26
636 6
637 30
638 3
639 3
640 3
641 26
642 16
643 17
644 3
645 19
646 19
647 3
648 30
649 16
650 3
651 17
652 3
653 11
654 31
655 16
656 16
657 16
658 3
659 16
660 11
661 3
662 21
663 26
664 26
665 3
666 30
667 3
668 29
669 3
670 3
671 19
672 3
673 19
674 19
675 3
676 11
677 31
678 16
679 31
680 3
681 21
682 3
683 30
684 31
685 19
686 27
687 16
688 30
689 3
690 3
691 3
692 30
693 19
694 3
695 16
696 3
697 16
698 3
699 19
700 3
701 3
702 5
703 31
704 16
705 19
706 3
707 17
708 16
709 16
710 3
711 16
712 16
713 31
714 3
715 19
716 16
717 31
718 26
719 3
720 19
721 16
722 30
723 26
724 3
725 30
726 3
727 3
728 3
729 11
730 19
731 16
732 26
733 8
734 16
735 16
736 3
737 16
738 26
739 16
740 17
741 3
742 3
743 31
744 3
745 31
746 13
747 26
748 3
749 3
750 3
751 31
752 5
753 19
754 26
755 17
756 31
757 19
758 3
759 17
760 10
761 3
762 19
763 3
764 3
765 3
766 3
767 3
768 3
769 19
770 16
771 3
772 26
773 31
774 3
775 19
776 19
777 3
778 16
779 3
780 16
781 26
782 31
783 31
784 3
785 30
786 3
787 3
788 3
789 3
790 16
791 11
792 3
793 25
794 19
795 16
796 30
797 16
798 19
799 26
800 30
801 13
802 16
803 19
804 8
805 30
806 5
807 19
808 31
809 19
810 17
811 19
812 16
813 30
814 13
815 31
816 25
817 3
818 3
819 31
820 19
821 16
822 3
823 3
824 16
825 16
826 3
827 3
828 30
829 19
830 16
831 30
832 31
833 3
834 19
835 3
836 30
837 19
838 30
839 31
840 3
841 16
842 30
843 16
844 19
845 31
846 17
847 19
848 16
849 3
850 3
851 19
852 3
853 3
854 3
855 17
856 16
857 16
858 19
859 16
860 31
861 31
862 19
863 3
864 31
865 3
866 19
867 17
868 3
869 31
870 11
871 3
872 19
873 30
874 30
875 31
876 31
877 16
878 31
879 3
880 3
881 19
882 3
883 16
884 3
885 19
886 31
887 3
888 2
889 19
890 16
891 3
892 8
893 30
894 3
895 3
896 3
897 19
898 16
899 21
900 16
901 3
902 3
903 3
904 19
905 3
906 3
907 13
908 19
909 30
910 3
911 16
912 3
913 19
914 30
915 11
916 3
917 3
918 12
919 3
920 17
921 3
922 3
923 31
924 22
925 3
926 16
927 3
928 3
929 3
930 3
931 16
932 13
933 3
934 3
935 3
936 30
937 19
938 5
939 3
940 29
941 16
942 3
943 16
944 3
945 3
946 3
947 16
948 26
949 31
950 16
951 19
952 4
953 30
954 19
955 19
956 17
957 3
958 31
959 3
960 19
961 3
962 3
963 31
964 16
965 3
966 27
967 16
968 31
969 16
970 31
971 16
972 31
973 16
974 19
975 31
976 3
977 26
978 5
979 16
980 31
981 31
982 3
983 30
984 16
985 3
986 3
987 16
988 26
989 3
990 19
991 3
992 26
993 19
994 3
995 31
996 31
997 3
998 31
999 16

0 2
1 3
2 4
3 5
4 6
5 7
6 8
7 9
8 10
9 11
10 12
11 13
12 14
13 15
14 16
15 17
16 18
17 19
18 20
19 21
20 22
21 23
22 24
23 25
24 26
25 27
26 28
27 29
28 30
29 31
30 32
31 3
32 10
33 3
34 30
35 3
36 26
37 16
38 3
39 5
40 3
41 16
42 19
43 16
44 17
45 31
46 3
47 3
48 16
49 30
50 31
51 31
52 17
53 3
54 31
55 12
56 19
57 31
58 8
59 12
60 16
61 3
62 5
63 16
64 3
65 3
66 26
67 5
68 3
69 5
70 3
71 30
72 16
73 3
74 11
75 3
76 3
77 26
78 3
79 3
80 16
81 3
82 3
83 3
84 30
85 31
86 31
87 31
88 31
89 30
90 3
91 3
92 30
93 3
94 16
95 3
96 3
97 26
98 30
99 3
100 3
101 3
102 3
103 3
104 30
105 3
106 3
107 31
108 8
109 26
110 3
111 19
112 16
113 16
114 3
115 3
116 8
117 3
118 19
119 3
120 12
121 19
122 31
123 16
124 30
125 21
126 16
127 3
128 30
129 3
130 3
131 3
132 3
133 8
134 3
135 16
136 30
137 26
138 16
139 30
140 3
141 3
142 19
143 19
144 3
145 3
146 3
147 31
148 3
149 16
150 19
151 11
152 16
153 16
154 26
155 3
156 31
157 19
158 16
159 26
160 17
161 16
162 16
163 3
164 3
165 5
166 3
167 31
168 3
169 16
170 16
171 16
172 3
173 26
174 31
175 19
176 8
177 19
178 26
179 3
180 30
181 3
182 16
183 3
184 31
185 19
186 16
187 3
188 3
189 19
190 17
191 3
192 19
193 16
194 19
195 3
196 16
197 31
198 19
199 16
200 16
201 3
202 31
203 19
204 12
205 30
206 3
207 3
208 3
209 3
210 3
211 3
212 30
213 31
214 3
215 31
216 3
217 16
218 16
219 16
220 16
221 3
222 3
223 3
224 19
225 26
226 31
227 16
228 16
229 16
230 3
231 31
232 31
233 30
234 26
235 19
236 3
237 3
238 16
239 16
240 3
241 16
242 16
243 3
244 16
245 16
246 17
247 16
248 3
249 3
250 3
251 8
252 19
253 16
254 3
255 17
256 3
257 3
258 3
259 3
260 5
261 17
262 3
263 3
264 16
265 3
266 26
267 31
268 19
269 3
270 13
271 3
272 26
273 16
274 3
275 19
276 19
277 3
278 19
279 3
280 16
281 16
282 3
283 16
284 17
285 16
286 3
287 3
288 19
289 13
290 19
291 19
292 31
293 3
294 3
295 29
296 10
297 19
298 13
299 30
300 31
301 31
302 17
303 16
304 30
305 31
306 31
307 19
308 18
309 8
310 3
311 16
312 3
313 17
314 11
315 31
316 16
317 30
318 3
319 3
320 31
321 5
322 31
323 1
324 31
325 3
326 3
327 3
328 26
329 17
330 26
331 30
332 31
333 13
334 31
335 3
336 30
337 16
338 26
339 31
340 3
341 17
342 31
343 3
344 3
345 26
346 30
347 19
348 16
349 19
350 19
351 3
352 31
353 19
354 30
355 31
356 3
357 3
358 17
359 19
360 13
361 16
362 3
363 26
364 3
365 8
366 16
367 16
368 31
369 3
370 19
371 16
372 3
373 3
374 16
375 31
376 3
377 3
378 3
379 3
380 3
381 19
382 30
383 19
384 3
385 5
386 31
387 31
388 3
389 26
390 16
391 31
392 19
393 13
394 3
395 26
396 6
397 3
398 3
399 3
400 30
401 16
402 16
403 3
404 3
405 3
406 3
407 3
408 3
409 16
410 19
411 19
412 30
413 30
414 8
415 31
416 3
417 3
418 19
419 30
420 30
421 30
422 31
423 31
424 3
425 31
426 30
427 13
428 30
429 3
430 30
431 31
432 8
433 26
434 3
435 3
436 31
437 3
438 19
439 3
440 17
441 19
442 16
443 3
444 17
445 19
446 3
447 30
448 3
449 3
450 26
451 30
452 19
453 3
454 3
455 17
456 5
457 3
458 19
459 5
460 3
461 19
462 30
463 3
464 19
465 19
466 3
467 3
468 19
469 16
470 3
471 26
472 3
473 3
474 31
475 16
476 17
477 3
478 31
479 3
480 3
481 3
482 3
483 3
484 16
485 16
486 5
487 3
488 31
489 21
490 30
491 31
492 3
493 3
494 31
495 26
496 31
497 3
498 30
499 30
500 26
501 16
502 16
503 3
504 19
505 3
506 11
507 8
508 3
509 3
510 3
511 26
512 19
513 31
514 3
515 3
516 3
517 3
518 26
519 31
520 17
521 3
522 3
523 3
524 16
525 31
526 31
527 31
528 16
529 17
530 3
531 16
532 3
533 3
534 27
535 31
536 31
537 3
538 5
539 16
540 16
541 3
542 16
543 31
544 30
545 31
546 16
547 3
548 19
549 3
550 30
551 3
552 26
553 19
554 3
555 3
556 31
557 16
558 3
559 3
560 16
561 3
562 3
563 30
564 31
565 31
566 30
567 8
568 19
569 19
570 19
571 31
572 3
573 31
574 16
575 19
576 3
577 3
578 3
579 17
580 8
581 19
582 16
583 19
584 30
585 3
586 3
587 16
588 3
589 19
590 3
591 3
592 19
593 31
594 16
595 3
596 11
597 3
598 3
599 16
600 30
601 31
602 30
603 3
604 19
605 3
606 31
607 3
608 31
609 3
610 19
611 16
612 3
613 26
614 31
615 3
616 19
617 3
618 31
619 5
620 31
621 31
622 16
623 17
624 16
625 26
626 31
627 3
628 13
629 3
630 17
631 3
632 3
633 30
634 3
635 26
636 6
637 30
638 3
639 3
640 3
641 26
642 16
643 17
644 3
645 19
646 19
647 3
648 30
649 16
650 3
651 17
652 3
653 11
654 31
655 16
656 16
657 16
658 3
659 16
660 11
661 3
662 21
663 26
664 26
665 3
666 30
667 3
668 29
669 3
670 3
671 19
672 3
673 19
674 19
675 3
676 11
677 31
678 16
679 31
680 3
681 21
682 3
683 30
684 31
685 19
686 27
687 16
688 30
689 3
690 3
691 3
692 30
693 19
694 3
695 16
696 3
697 16
698 3
699 19
700 3
701 3
702 5
703 31
704 16
705 19
706 3
707 17
708 16
709 16
710 3
711 16
712 16
713 31
714 3
715 19
716 16
717 31
718 26
719 3
720 19
721 16
722 30
723 26
724 3
725 30
726 3
727 3
728 3
729 11
730 19
731 16
732 26
733 8
734 16
735 16
736 3
737 16
738 26
739 16
740 17
741 3
742 3
743 31
744 3
745 31
746 13
747 26
748 3
749 3
750 3
751 31
752 5
753 19
754 26
755 17
756 31
757 19
758 3
759 17
760 10
761 3
762 19
763 3
764 3
765 3
766 3
767 3
768 3
769 19
770 16
771 3
772 26
773 31
774 3
775 19
776 19
777 3
778 16
779 3
780 16
781 26
782 31
783 31
784 3
785 30
786 3
787 3
788 3
789 3
790 16
791 11
792 3
793 25
794 19
795 16
796 30
797 16
798 19
799 26
800 30
801 13
802 16
803 19
804 8
805 30
806 5
807 19
808 31
809 19
810 17
811 19
812 16
813 30
814 13
815 31
816 25
817 3
818 3
819 31
820 19
821 16
822 3
823 3
824 16
825 16
826 3
827 3
828 30
829 19
830 16
831 30
832 31
833 3
834 19
835 3
836 30
837 19
838 30
839 31
840 3
841 16
842 30
843 16
844 19
845 31
846 17
847 19
848 16
849 3
850 3
851 19
852 3
853 3
854 3
855 17
856 16
857 16
858 19
859 16
860 31
861 31
862 19
863 3
864 31
865 3
866 19
867 17
868 3
869 31
870 11
871 3
872 19
873 30
874 30
875 31
876 31
877 16
878 31
879 3
880 3
881 19
882 3
883 16
884 3
885 19
886 31
887 3
888 2
889 19
890 16
891 3
892 8
893 30
894 3
895 3
896 3
897 19
898 16
899 21
900 16
901 3
902 3
903 3
904 19
905 3
906 3
907 13
908 19
909 30
910 3
911 16
912 3
913 19
914 30
915 11
916 3
917 3
918 12
919 3
920 17
921 3
922 3
923 31
924 22
925 3
926 16
927 3
928 3
929 3
930 3
931 16
932 13
933 3
934 3
935 3
936 30
937 19
938 5
939 3
940 29
941 16
942 3
943 16
944 3
945 3
946 3
947 16
948 26
949 31
950 16
951 19
952 4
953 30
954 19
955 19
956 17
957 3
958 31
959 3
960 19
961 3
962 3
963 31
964 16
965 3
966 27
967 16
968 31
969 16
970 31
971 16
972 31
973 16
974 19
975 31
976 3
977 26
978 5
979 16
980 31
981 31
982 3
983 30
984 16
985 3
986 3
987 16
988 26
989 3
990 19
991 3
992 26
993 19
994 3
995 31
996 31
997 3
998 31
999 16

